# Solution for model BargeScheduling
# Objective value = 1.5123000292309633e+05
f_ck[0,0] 9.9999500376705619e-01
f_ck[0,1] 0
f_ck[0,2] 0
f_ck[0,3] 0
f_ck[0,4] 0
f_ck[0,5] 4.9977329439045789e-06
f_ck[0,6] 0
f_ck[0,7] -2.4901599458370328e-09
f_ck[1,0] 0
f_ck[1,1] 0
f_ck[1,2] 1
f_ck[1,3] 0
f_ck[1,4] 0
f_ck[1,5] 0
f_ck[1,6] 0
f_ck[1,7] 0
f_ck[2,0] 0
f_ck[2,1] 1
f_ck[2,2] 0
f_ck[2,3] 0
f_ck[2,4] 0
f_ck[2,5] 0
f_ck[2,6] 0
f_ck[2,7] 0
f_ck[3,0] 1
f_ck[3,1] 0
f_ck[3,2] 0
f_ck[3,3] 0
f_ck[3,4] 0
f_ck[3,5] 0
f_ck[3,6] 0
f_ck[3,7] 0
f_ck[4,0] 0
f_ck[4,1] 0
f_ck[4,2] 0
f_ck[4,3] 1
f_ck[4,4] 0
f_ck[4,5] 0
f_ck[4,6] 0
f_ck[4,7] 0
f_ck[5,0] 0
f_ck[5,1] 1
f_ck[5,2] 0
f_ck[5,3] 0
f_ck[5,4] 0
f_ck[5,5] 0
f_ck[5,6] 0
f_ck[5,7] 0
f_ck[6,0] 0
f_ck[6,1] 1
f_ck[6,2] 0
f_ck[6,3] 0
f_ck[6,4] 0
f_ck[6,5] 0
f_ck[6,6] 0
f_ck[6,7] 0
f_ck[7,0] 0
f_ck[7,1] 1
f_ck[7,2] 0
f_ck[7,3] 0
f_ck[7,4] 0
f_ck[7,5] 0
f_ck[7,6] 0
f_ck[7,7] 0
f_ck[8,0] 0
f_ck[8,1] 1
f_ck[8,2] 0
f_ck[8,3] 0
f_ck[8,4] 0
f_ck[8,5] 0
f_ck[8,6] 0
f_ck[8,7] 0
f_ck[9,0] 0
f_ck[9,1] 0
f_ck[9,2] 0
f_ck[9,3] 1
f_ck[9,4] 0
f_ck[9,5] 0
f_ck[9,6] 0
f_ck[9,7] 0
f_ck[10,0] 0
f_ck[10,1] 1
f_ck[10,2] 0
f_ck[10,3] 0
f_ck[10,4] 0
f_ck[10,5] 0
f_ck[10,6] 0
f_ck[10,7] 0
f_ck[11,0] 0
f_ck[11,1] 0
f_ck[11,2] 1
f_ck[11,3] 0
f_ck[11,4] 0
f_ck[11,5] 0
f_ck[11,6] 0
f_ck[11,7] 0
f_ck[12,0] 1
f_ck[12,1] 0
f_ck[12,2] 0
f_ck[12,3] 0
f_ck[12,4] 0
f_ck[12,5] 0
f_ck[12,6] 0
f_ck[12,7] 0
f_ck[13,0] 1
f_ck[13,1] 0
f_ck[13,2] 0
f_ck[13,3] 0
f_ck[13,4] 0
f_ck[13,5] 0
f_ck[13,6] 0
f_ck[13,7] 0
f_ck[14,0] 1
f_ck[14,1] 0
f_ck[14,2] 0
f_ck[14,3] 0
f_ck[14,4] 0
f_ck[14,5] 0
f_ck[14,6] 0
f_ck[14,7] 0
f_ck[15,0] 4.9998752666483148e-06
f_ck[15,1] 0
f_ck[15,2] 0.999990000000005
f_ck[15,3] 0
f_ck[15,4] 0
f_ck[15,5] 4.9988747282737140e-06
f_ck[15,6] 0
f_ck[15,7] 0
f_ck[16,0] 1
f_ck[16,1] 0
f_ck[16,2] 0
f_ck[16,3] 0
f_ck[16,4] 0
f_ck[16,5] 0
f_ck[16,6] 0
f_ck[16,7] 0
f_ck[17,0] 0
f_ck[17,1] 0
f_ck[17,2] 0
f_ck[17,3] 0
f_ck[17,4] 0
f_ck[17,5] 0
f_ck[17,6] 0
f_ck[17,7] 1
f_ck[18,0] 0
f_ck[18,1] 1
f_ck[18,2] 0
f_ck[18,3] 0
f_ck[18,4] 0
f_ck[18,5] 0
f_ck[18,6] 0
f_ck[18,7] 0
f_ck[19,0] 1
f_ck[19,1] 0
f_ck[19,2] 0
f_ck[19,3] 0
f_ck[19,4] 0
f_ck[19,5] 0
f_ck[19,6] 0
f_ck[19,7] 0
f_ck[20,0] 0
f_ck[20,1] 1
f_ck[20,2] 0
f_ck[20,3] 0
f_ck[20,4] 0
f_ck[20,5] 0
f_ck[20,6] 0
f_ck[20,7] 0
f_ck[21,0] 0
f_ck[21,1] 0
f_ck[21,2] 0
f_ck[21,3] 1
f_ck[21,4] 0
f_ck[21,5] 0
f_ck[21,6] 0
f_ck[21,7] 0
f_ck[22,0] 0
f_ck[22,1] 0
f_ck[22,2] 0
f_ck[22,3] 1
f_ck[22,4] 0
f_ck[22,5] 0
f_ck[22,6] 0
f_ck[22,7] 0
f_ck[23,0] 0
f_ck[23,1] 0
f_ck[23,2] 0
f_ck[23,3] 1
f_ck[23,4] 0
f_ck[23,5] 0
f_ck[23,6] 0
f_ck[23,7] 0
f_ck[24,0] 0
f_ck[24,1] 1
f_ck[24,2] 0
f_ck[24,3] 0
f_ck[24,4] 0
f_ck[24,5] 0
f_ck[24,6] 0
f_ck[24,7] 0
f_ck[25,0] 1
f_ck[25,1] 0
f_ck[25,2] 0
f_ck[25,3] 0
f_ck[25,4] 0
f_ck[25,5] 0
f_ck[25,6] 0
f_ck[25,7] 0
f_ck[26,0] 9.9999300000500568e-01
f_ck[26,1] 0
f_ck[26,2] 6.9999569646251883e-06
f_ck[26,3] 0
f_ck[26,4] 0
f_ck[26,5] 0
f_ck[26,6] 0
f_ck[26,7] 0
f_ck[27,0] 0
f_ck[27,1] 0
f_ck[27,2] 1
f_ck[27,3] 0
f_ck[27,4] 0
f_ck[27,5] 0
f_ck[27,6] 0
f_ck[27,7] 0
f_ck[28,0] 0
f_ck[28,1] 0
f_ck[28,2] 0
f_ck[28,3] 1
f_ck[28,4] 0
f_ck[28,5] 0
f_ck[28,6] 0
f_ck[28,7] 0
f_ck[29,0] 0
f_ck[29,1] 1
f_ck[29,2] 0
f_ck[29,3] 0
f_ck[29,4] 0
f_ck[29,5] 0
f_ck[29,6] 0
f_ck[29,7] 0
f_ck[30,0] 9.9999800000500583e-01
f_ck[30,1] 0
f_ck[30,2] 1.9987449941796641e-06
f_ck[30,3] 0
f_ck[30,4] 0
f_ck[30,5] 0
f_ck[30,6] 0
f_ck[30,7] 0
f_ck[31,0] 1
f_ck[31,1] 0
f_ck[31,2] 0
f_ck[31,3] 0
f_ck[31,4] 0
f_ck[31,5] 0
f_ck[31,6] 0
f_ck[31,7] 0
f_ck[32,0] 0
f_ck[32,1] 0
f_ck[32,2] 1
f_ck[32,3] 0
f_ck[32,4] 0
f_ck[32,5] 0
f_ck[32,6] 0
f_ck[32,7] 0
f_ck[33,0] 0
f_ck[33,1] 1
f_ck[33,2] 0
f_ck[33,3] 0
f_ck[33,4] 0
f_ck[33,5] 0
f_ck[33,6] 0
f_ck[33,7] 0
f_ck[34,0] 0
f_ck[34,1] 0
f_ck[34,2] 0
f_ck[34,3] 1
f_ck[34,4] 0
f_ck[34,5] 0
f_ck[34,6] 0
f_ck[34,7] 0
f_ck[35,0] 0
f_ck[35,1] 0
f_ck[35,2] 0
f_ck[35,3] 0
f_ck[35,4] 1
f_ck[35,5] 0
f_ck[35,6] 0
f_ck[35,7] 0
f_ck[36,0] 0
f_ck[36,1] 0
f_ck[36,2] 0
f_ck[36,3] 1
f_ck[36,4] 0
f_ck[36,5] 0
f_ck[36,6] 0
f_ck[36,7] 0
f_ck[37,0] 0
f_ck[37,1] 0
f_ck[37,2] 0
f_ck[37,3] 0
f_ck[37,4] 1
f_ck[37,5] 0
f_ck[37,6] 0
f_ck[37,7] 0
f_ck[38,0] 0
f_ck[38,1] 0
f_ck[38,2] 1
f_ck[38,3] 0
f_ck[38,4] 0
f_ck[38,5] 0
f_ck[38,6] 0
f_ck[38,7] 0
f_ck[39,0] 0
f_ck[39,1] 0
f_ck[39,2] 1
f_ck[39,3] 0
f_ck[39,4] 0
f_ck[39,5] 0
f_ck[39,6] 0
f_ck[39,7] 0
f_ck[40,0] 0
f_ck[40,1] 0
f_ck[40,2] 0
f_ck[40,3] 0
f_ck[40,4] 1
f_ck[40,5] 0
f_ck[40,6] 0
f_ck[40,7] 0
f_ck[41,0] 0
f_ck[41,1] 1
f_ck[41,2] 0
f_ck[41,3] 0
f_ck[41,4] 0
f_ck[41,5] 0
f_ck[41,6] 0
f_ck[41,7] 0
f_ck[42,0] 0
f_ck[42,1] 0
f_ck[42,2] 0
f_ck[42,3] 0
f_ck[42,4] 1
f_ck[42,5] 0
f_ck[42,6] 0
f_ck[42,7] 0
f_ck[43,0] 0
f_ck[43,1] 0
f_ck[43,2] 0
f_ck[43,3] 0
f_ck[43,4] 1
f_ck[43,5] 0
f_ck[43,6] 0
f_ck[43,7] 0
f_ck[44,0] 1
f_ck[44,1] 0
f_ck[44,2] 0
f_ck[44,3] 0
f_ck[44,4] 0
f_ck[44,5] 0
f_ck[44,6] 0
f_ck[44,7] 0
f_ck[45,0] 0
f_ck[45,1] 1
f_ck[45,2] 0
f_ck[45,3] 0
f_ck[45,4] 0
f_ck[45,5] 0
f_ck[45,6] 0
f_ck[45,7] 0
f_ck[46,0] 0
f_ck[46,1] 0
f_ck[46,2] 0
f_ck[46,3] 1
f_ck[46,4] 0
f_ck[46,5] 0
f_ck[46,6] 0
f_ck[46,7] 0
f_ck[47,0] 0
f_ck[47,1] 0
f_ck[47,2] 1
f_ck[47,3] 0
f_ck[47,4] 0
f_ck[47,5] 0
f_ck[47,6] 0
f_ck[47,7] 0
f_ck[48,0] 1
f_ck[48,1] 0
f_ck[48,2] 0
f_ck[48,3] 0
f_ck[48,4] 0
f_ck[48,5] 0
f_ck[48,6] 0
f_ck[48,7] 0
f_ck[49,0] 1
f_ck[49,1] 0
f_ck[49,2] 0
f_ck[49,3] 0
f_ck[49,4] 0
f_ck[49,5] 0
f_ck[49,6] 0
f_ck[49,7] 0
f_ck[50,0] 1
f_ck[50,1] 0
f_ck[50,2] 0
f_ck[50,3] 0
f_ck[50,4] 0
f_ck[50,5] 0
f_ck[50,6] 0
f_ck[50,7] 0
f_ck[51,0] 1
f_ck[51,1] 0
f_ck[51,2] 0
f_ck[51,3] 0
f_ck[51,4] 0
f_ck[51,5] 0
f_ck[51,6] 0
f_ck[51,7] 0
f_ck[52,0] 0
f_ck[52,1] 0
f_ck[52,2] 0
f_ck[52,3] 1
f_ck[52,4] 0
f_ck[52,5] 0
f_ck[52,6] 0
f_ck[52,7] 0
f_ck[53,0] 0
f_ck[53,1] 1
f_ck[53,2] 0
f_ck[53,3] 0
f_ck[53,4] 0
f_ck[53,5] 0
f_ck[53,6] 0
f_ck[53,7] 0
f_ck[54,0] 0
f_ck[54,1] 0
f_ck[54,2] 0
f_ck[54,3] 0
f_ck[54,4] 1
f_ck[54,5] 0
f_ck[54,6] 0
f_ck[54,7] 0
f_ck[55,0] 0
f_ck[55,1] 1
f_ck[55,2] 0
f_ck[55,3] 0
f_ck[55,4] 0
f_ck[55,5] 0
f_ck[55,6] 0
f_ck[55,7] 0
f_ck[56,0] 0
f_ck[56,1] 1
f_ck[56,2] 0
f_ck[56,3] 0
f_ck[56,4] 0
f_ck[56,5] 0
f_ck[56,6] 0
f_ck[56,7] 0
f_ck[57,0] 0
f_ck[57,1] 0
f_ck[57,2] 0
f_ck[57,3] 1
f_ck[57,4] 0
f_ck[57,5] 0
f_ck[57,6] 0
f_ck[57,7] 0
f_ck[58,0] 0
f_ck[58,1] 1
f_ck[58,2] 0
f_ck[58,3] 0
f_ck[58,4] 0
f_ck[58,5] 0
f_ck[58,6] 0
f_ck[58,7] 0
f_ck[59,0] 0
f_ck[59,1] 0
f_ck[59,2] 1
f_ck[59,3] 0
f_ck[59,4] 0
f_ck[59,5] 0
f_ck[59,6] 0
f_ck[59,7] 0
f_ck[60,0] 1
f_ck[60,1] 0
f_ck[60,2] 0
f_ck[60,3] 0
f_ck[60,4] 0
f_ck[60,5] 0
f_ck[60,6] 0
f_ck[60,7] 0
f_ck[61,0] 0
f_ck[61,1] 0
f_ck[61,2] 0
f_ck[61,3] 0
f_ck[61,4] 1
f_ck[61,5] 0
f_ck[61,6] 0
f_ck[61,7] 0
f_ck[62,0] 0
f_ck[62,1] 1
f_ck[62,2] 0
f_ck[62,3] 0
f_ck[62,4] 0
f_ck[62,5] 0
f_ck[62,6] 0
f_ck[62,7] 0
f_ck[63,0] 0
f_ck[63,1] 1
f_ck[63,2] 0
f_ck[63,3] 0
f_ck[63,4] 0
f_ck[63,5] 0
f_ck[63,6] 0
f_ck[63,7] 0
f_ck[64,0] 1
f_ck[64,1] 0
f_ck[64,2] 0
f_ck[64,3] 0
f_ck[64,4] 0
f_ck[64,5] 0
f_ck[64,6] 0
f_ck[64,7] 0
x_ijk[0,0,0] 0
x_ijk[0,0,1] 0
x_ijk[0,0,2] 0
x_ijk[0,0,3] 0
x_ijk[0,0,4] 0
x_ijk[0,0,5] 0
x_ijk[0,0,6] 0
x_ijk[0,1,0] 1
x_ijk[0,1,1] 0
x_ijk[0,1,2] 1
x_ijk[0,1,3] 0
x_ijk[0,1,4] 0
x_ijk[0,1,5] 4.9950000000327552e-07
x_ijk[0,1,6] 0
x_ijk[0,2,0] 0
x_ijk[0,2,1] 1
x_ijk[0,2,2] 0
x_ijk[0,2,3] 0
x_ijk[0,2,4] 1
x_ijk[0,2,5] 0
x_ijk[0,2,6] 0
x_ijk[0,3,0] 0
x_ijk[0,3,1] 0
x_ijk[0,3,2] 0
x_ijk[0,3,3] 1
x_ijk[0,3,4] 0
x_ijk[0,3,5] 0
x_ijk[0,3,6] 0
x_ijk[1,0,0] 1
x_ijk[1,0,1] 0
x_ijk[1,0,2] 0
x_ijk[1,0,3] 0
x_ijk[1,0,4] 0
x_ijk[1,0,5] 4.99416098132336e-07
x_ijk[1,0,6] 0
x_ijk[1,1,0] 0
x_ijk[1,1,1] 0
x_ijk[1,1,2] 0
x_ijk[1,1,3] 0
x_ijk[1,1,4] 0
x_ijk[1,1,5] 0
x_ijk[1,1,6] 0
x_ijk[1,2,0] 0
x_ijk[1,2,1] 0
x_ijk[1,2,2] 0
x_ijk[1,2,3] 0
x_ijk[1,2,4] 0
x_ijk[1,2,5] 0
x_ijk[1,2,6] 0
x_ijk[1,3,0] 0
x_ijk[1,3,1] 0
x_ijk[1,3,2] 1
x_ijk[1,3,3] 0
x_ijk[1,3,4] 0
x_ijk[1,3,5] 0
x_ijk[1,3,6] 0
x_ijk[2,0,0] 0
x_ijk[2,0,1] 1
x_ijk[2,0,2] 0
x_ijk[2,0,3] 0
x_ijk[2,0,4] 1
x_ijk[2,0,5] 0
x_ijk[2,0,6] 0
x_ijk[2,1,0] 0
x_ijk[2,1,1] 0
x_ijk[2,1,2] 0
x_ijk[2,1,3] 0
x_ijk[2,1,4] 0
x_ijk[2,1,5] 0
x_ijk[2,1,6] 0
x_ijk[2,2,0] 0
x_ijk[2,2,1] 0
x_ijk[2,2,2] 0
x_ijk[2,2,3] 0
x_ijk[2,2,4] 0
x_ijk[2,2,5] 0
x_ijk[2,2,6] 0
x_ijk[2,3,0] 0
x_ijk[2,3,1] 0
x_ijk[2,3,2] 0
x_ijk[2,3,3] 0
x_ijk[2,3,4] 0
x_ijk[2,3,5] 0
x_ijk[2,3,6] 0
x_ijk[3,0,0] 0
x_ijk[3,0,1] 0
x_ijk[3,0,2] 1
x_ijk[3,0,3] 1
x_ijk[3,0,4] 0
x_ijk[3,0,5] 0
x_ijk[3,0,6] 0
x_ijk[3,1,0] 0
x_ijk[3,1,1] 0
x_ijk[3,1,2] 0
x_ijk[3,1,3] 0
x_ijk[3,1,4] 0
x_ijk[3,1,5] 0
x_ijk[3,1,6] 0
x_ijk[3,2,0] 0
x_ijk[3,2,1] 0
x_ijk[3,2,2] 0
x_ijk[3,2,3] 0
x_ijk[3,2,4] 0
x_ijk[3,2,5] 0
x_ijk[3,2,6] 0
x_ijk[3,3,0] 0
x_ijk[3,3,1] 0
x_ijk[3,3,2] 0
x_ijk[3,3,3] 0
x_ijk[3,3,4] 0
x_ijk[3,3,5] 0
x_ijk[3,3,6] 0
p_jk[0,0] 0
p_jk[0,1] 0
p_jk[0,2] 0
p_jk[0,3] 0
p_jk[0,4] 0
p_jk[0,5] 0
p_jk[0,6] 0
p_jk[1,0] 1.0999998000713607e+01
p_jk[1,1] 0
p_jk[1,2] 0.999997000790303
p_jk[1,3] 0
p_jk[1,4] 0
p_jk[1,5] 4.9980413949403805e-06
p_jk[1,6] 0
p_jk[2,0] 0
p_jk[2,1] 12
p_jk[2,2] 0
p_jk[2,3] 0
p_jk[2,4] 8
p_jk[2,5] 0
p_jk[2,6] 0
p_jk[3,0] 0
p_jk[3,1] 0
p_jk[3,2] 9
p_jk[3,3] 10
p_jk[3,4] 0
p_jk[3,5] 0
p_jk[3,6] 0
d_jk[0,0] 0
d_jk[0,1] 0
d_jk[0,2] 0
d_jk[0,3] 0
d_jk[0,4] 0
d_jk[0,5] 0
d_jk[0,6] 0
d_jk[1,0] 8.9999930046698626e+00
d_jk[1,1] 0
d_jk[1,2] 2.0000019977449943e+00
d_jk[1,3] 0
d_jk[1,4] 0
d_jk[1,5] 4.9973043724760069e-06
d_jk[1,6] 0
d_jk[2,0] 0
d_jk[2,1] 8
d_jk[2,2] 0
d_jk[2,3] 0
d_jk[2,4] 0
d_jk[2,5] 0
d_jk[2,6] 0
d_jk[3,0] 0
d_jk[3,1] 0
d_jk[3,2] 0
d_jk[3,3] 2
d_jk[3,4] 0
d_jk[3,5] 0
d_jk[3,6] 0
y_ijk[0,0,0] 0
y_ijk[0,0,1] 0
y_ijk[0,0,2] 0
y_ijk[0,0,3] 0
y_ijk[0,0,4] 0
y_ijk[0,0,5] 0
y_ijk[0,0,6] 0
y_ijk[0,1,0] 0
y_ijk[0,1,1] 0
y_ijk[0,1,2] 0
y_ijk[0,1,3] 0
y_ijk[0,1,4] 0
y_ijk[0,1,5] 0
y_ijk[0,1,6] 0
y_ijk[0,2,0] 0
y_ijk[0,2,1] 0
y_ijk[0,2,2] 0
y_ijk[0,2,3] 0
y_ijk[0,2,4] 0
y_ijk[0,2,5] 0
y_ijk[0,2,6] 0
y_ijk[0,3,0] 0
y_ijk[0,3,1] 0
y_ijk[0,3,2] 0
y_ijk[0,3,3] 0
y_ijk[0,3,4] 0
y_ijk[0,3,5] 0
y_ijk[0,3,6] 0
y_ijk[1,0,0] 1.0999998002142178e+01
y_ijk[1,0,1] 0
y_ijk[1,0,2] 0
y_ijk[1,0,3] 0
y_ijk[1,0,4] 0
y_ijk[1,0,5] 4.99661282351181e-06
y_ijk[1,0,6] 0
y_ijk[1,1,0] 0
y_ijk[1,1,1] 0
y_ijk[1,1,2] 0
y_ijk[1,1,3] 0
y_ijk[1,1,4] 0
y_ijk[1,1,5] 0
y_ijk[1,1,6] 0
y_ijk[1,2,0] 0
y_ijk[1,2,1] 0
y_ijk[1,2,2] 0
y_ijk[1,2,3] 0
y_ijk[1,2,4] 0
y_ijk[1,2,5] 0
y_ijk[1,2,6] 0
y_ijk[1,3,0] 0
y_ijk[1,3,1] 0
y_ijk[1,3,2] 9.9999700221887444e-01
y_ijk[1,3,3] 0
y_ijk[1,3,4] 0
y_ijk[1,3,5] 0
y_ijk[1,3,6] 0
y_ijk[2,0,0] 0
y_ijk[2,0,1] 12
y_ijk[2,0,2] 0
y_ijk[2,0,3] 0
y_ijk[2,0,4] 8
y_ijk[2,0,5] 0
y_ijk[2,0,6] 0
y_ijk[2,1,0] 0
y_ijk[2,1,1] 0
y_ijk[2,1,2] 0
y_ijk[2,1,3] 0
y_ijk[2,1,4] 0
y_ijk[2,1,5] 0
y_ijk[2,1,6] 0
y_ijk[2,2,0] 0
y_ijk[2,2,1] 0
y_ijk[2,2,2] 0
y_ijk[2,2,3] 0
y_ijk[2,2,4] 0
y_ijk[2,2,5] 0
y_ijk[2,2,6] 0
y_ijk[2,3,0] 0
y_ijk[2,3,1] 0
y_ijk[2,3,2] 0
y_ijk[2,3,3] 0
y_ijk[2,3,4] 0
y_ijk[2,3,5] 0
y_ijk[2,3,6] 0
y_ijk[3,0,0] 0
y_ijk[3,0,1] 0
y_ijk[3,0,2] 9.9999970036474455e+00
y_ijk[3,0,3] 10
y_ijk[3,0,4] 0
y_ijk[3,0,5] 0
y_ijk[3,0,6] 0
y_ijk[3,1,0] 0
y_ijk[3,1,1] 0
y_ijk[3,1,2] 0
y_ijk[3,1,3] 0
y_ijk[3,1,4] 0
y_ijk[3,1,5] 0
y_ijk[3,1,6] 0
y_ijk[3,2,0] 0
y_ijk[3,2,1] 0
y_ijk[3,2,2] 0
y_ijk[3,2,3] 0
y_ijk[3,2,4] 0
y_ijk[3,2,5] 0
y_ijk[3,2,6] 0
y_ijk[3,3,0] 0
y_ijk[3,3,1] 0
y_ijk[3,3,2] 0
y_ijk[3,3,3] 0
y_ijk[3,3,4] 0
y_ijk[3,3,5] 0
y_ijk[3,3,6] 0
z_ijk[0,0,0] 0
z_ijk[0,0,1] 0
z_ijk[0,0,2] 0
z_ijk[0,0,3] 0
z_ijk[0,0,4] 0
z_ijk[0,0,5] 0
z_ijk[0,0,6] 0
z_ijk[0,1,0] 8.9999930060984337e+00
z_ijk[0,1,1] 0
z_ijk[0,1,2] 2.0000019963164228e+00
z_ijk[0,1,3] 0
z_ijk[0,1,4] 0
z_ijk[0,1,5] 4.9958758010474361e-06
z_ijk[0,1,6] 0
z_ijk[0,2,0] 0
z_ijk[0,2,1] 8
z_ijk[0,2,2] 0
z_ijk[0,2,3] 0
z_ijk[0,2,4] 0
z_ijk[0,2,5] 0
z_ijk[0,2,6] 0
z_ijk[0,3,0] 0
z_ijk[0,3,1] 0
z_ijk[0,3,2] 0
z_ijk[0,3,3] 2
z_ijk[0,3,4] 0
z_ijk[0,3,5] 0
z_ijk[0,3,6] 0
z_ijk[1,0,0] 0
z_ijk[1,0,1] 0
z_ijk[1,0,2] 0
z_ijk[1,0,3] 0
z_ijk[1,0,4] 0
z_ijk[1,0,5] 0
z_ijk[1,0,6] 0
z_ijk[1,1,0] 0
z_ijk[1,1,1] 0
z_ijk[1,1,2] 0
z_ijk[1,1,3] 0
z_ijk[1,1,4] 0
z_ijk[1,1,5] 0
z_ijk[1,1,6] 0
z_ijk[1,2,0] 0
z_ijk[1,2,1] 0
z_ijk[1,2,2] 0
z_ijk[1,2,3] 0
z_ijk[1,2,4] 0
z_ijk[1,2,5] 0
z_ijk[1,2,6] 0
z_ijk[1,3,0] 0
z_ijk[1,3,1] 0
z_ijk[1,3,2] 0
z_ijk[1,3,3] 0
z_ijk[1,3,4] 0
z_ijk[1,3,5] 0
z_ijk[1,3,6] 0
z_ijk[2,0,0] 0
z_ijk[2,0,1] 0
z_ijk[2,0,2] 0
z_ijk[2,0,3] 0
z_ijk[2,0,4] 0
z_ijk[2,0,5] 0
z_ijk[2,0,6] 0
z_ijk[2,1,0] 0
z_ijk[2,1,1] 0
z_ijk[2,1,2] 0
z_ijk[2,1,3] 0
z_ijk[2,1,4] 0
z_ijk[2,1,5] 0
z_ijk[2,1,6] 0
z_ijk[2,2,0] 0
z_ijk[2,2,1] 0
z_ijk[2,2,2] 0
z_ijk[2,2,3] 0
z_ijk[2,2,4] 0
z_ijk[2,2,5] 0
z_ijk[2,2,6] 0
z_ijk[2,3,0] 0
z_ijk[2,3,1] 0
z_ijk[2,3,2] 0
z_ijk[2,3,3] 0
z_ijk[2,3,4] 0
z_ijk[2,3,5] 0
z_ijk[2,3,6] 0
z_ijk[3,0,0] 0
z_ijk[3,0,1] 0
z_ijk[3,0,2] 0
z_ijk[3,0,3] 0
z_ijk[3,0,4] 0
z_ijk[3,0,5] 0
z_ijk[3,0,6] 0
z_ijk[3,1,0] 0
z_ijk[3,1,1] 0
z_ijk[3,1,2] 0
z_ijk[3,1,3] 0
z_ijk[3,1,4] 0
z_ijk[3,1,5] 0
z_ijk[3,1,6] 0
z_ijk[3,2,0] 0
z_ijk[3,2,1] 0
z_ijk[3,2,2] 0
z_ijk[3,2,3] 0
z_ijk[3,2,4] 0
z_ijk[3,2,5] 0
z_ijk[3,2,6] 0
z_ijk[3,3,0] 0
z_ijk[3,3,1] 0
z_ijk[3,3,2] 0
z_ijk[3,3,3] 0
z_ijk[3,3,4] 0
z_ijk[3,3,5] 0
z_ijk[3,3,6] 0
t_jk[0,0] 3.8999994999301514e+01
t_jk[0,1] 37
t_jk[0,2] 22
t_jk[0,3] 37
t_jk[0,4] 11
t_jk[0,5] 1.9500000000127748e-04
t_jk[0,6] 40
t_jk[1,0] 1.1399999499930152e+02
t_jk[1,1] 0
t_jk[1,2] 97
t_jk[1,3] 75
t_jk[1,4] 2.2183333333333334e+02
t_jk[1,5] 75
t_jk[1,6] 220
t_jk[2,0] 999856
t_jk[2,1] 116
t_jk[2,2] 0
t_jk[2,3] 79
t_jk[2,4] 90
t_jk[2,5] 253
t_jk[2,6] 253
t_jk[3,0] 0
t_jk[3,1] 0
t_jk[3,2] 1.7933333316667864e+02
t_jk[3,3] 106
t_jk[3,4] 2.2483333333333334e+02
t_jk[3,5] 1.7233333333333334e+02
t_jk[3,6] 0
